\ENCODING=ISO-8859-1
\Problem name: IloCplex

Minimize
 obj: 1000000000000 x1 + 1000000000000 x2 + 1000000000000 x3 + 1000000000000 x4
      + 1000000000000 x5 + 1000000000000 x6 + 1000000000000 x7
      + 1000000000000 x8 + 1000000000000 x9 + 1000000000000 x10
      + 1000000000000 x11 + 1000000000000 x12 + 1000000000000 x13
      + 1000000000000 x14 + 1000000000000 x15 + 1000000000000 x16
      + 1000000000000 x17 + 1000000000000 x18 + 1000000000000 x19
      + 1000000000000 x20 + 1000000000000 x21 + 1000000000000 x22
      + 1000000000000 x23 + 1000000000000 x24 + 1000000000000 x25
      + 1000000000000 x26 + 1000000000000 x27 + 1000000000000 x28
      + 1000000000000 x29 + 1000000000000 x30 + 1000000000000 x31
      + 1000000000000 x32 + 1000000000000 x33 + 1000000000000 x34
      + 1000000000000 x35 + 1000000000000 x36 + 1000000000000 x37
      + 1000000000000 x38 + 1000000000000 x39 + 1000000000000 x40
      + 1000000000000 x41 + 1000000000000 x42 + 1000000000000 x43
      + 1000000000000 x44 + 1000000000000 x45 + 1000000000000 x46
      + 1000000000000 x47 + 1000000000000 x48 + 1000000000000 x49
      + 1000000000000 x50 + x51 + x52 + x53 + x54 + x55 + x56 + x57 + x58 + x59
      + x60 + x61 + x62 + x63 + x64 + x65 + x66 + x67 + x68 + x69 + x70 + x71
      + x72 + x73 + x74 + x75 + x76 + x77 + x78 + x79 + x80 + x81 + x82 + x83
      + x84 + x85 + x86 + x87 + x88 + x89 + x90 + x91 + x92 + x93 + x94 + x95
      + x96 + x97 + x98 + x99 + x100 + x101 + x102 + x103 + x104 + x105 + x106
      + x107 + x108 + x109 + x110 + x111 + x112 + x113 + x114 + x115 + x116
      + x117 + x118 + x119 + x120 + x121 + x122 + x123 + x124 + x125 + x126
      + x127 + x128 + x129 + x130 + x131 + x132 + x133 + x134 + x135 + x136
      + x137 + x138 + x139 + x140 + x141 + x142 + x143 + x144 + x145 + x146
      + x147 + x148 + x149 + x150 + x151 + x152 + x153 + x154 + x155 + x156
      + x157 + x158 + x159 + x160 + x161 + x162 + x163 + x164 + x165 + x166
      + x167 + x168 + x169 + x170 + x171 + x172 + x173 + x174 + x175 + x176
      + x177 + x178 + x179 + x180 + x181 + x182 + x183 + x184 + x185 + x186
      + x187 + x188 + x189 + x190 + x191 + x192 + x193 + x194 + x195 + x196
      + x197 + x198 + x199 + x200 + x201 + x202 + x203 + x204 + x205 + x206
      + x207 + x208 + x209 + x210 + x211 + x212 + x213 + x214 + x215 + x216
      + x217 + x218 + x219 + x220 + x221 + x222 + x223 + x224 + x225 + x226
      + x227 + x228 + x229 + x230 + x231 + x232 + x233 + x234 + x235 + x236
      + x237 + x238 + x239 + x240 + x241 + x242 + x243 + x244 + x245 + x246
      + x247 + x248 + x249 + x250 + x251 + x252 + x253 + x254 + x255 + x256
      + x257 + x258 + x259 + x260 + x261 + x262 + x263 + x264 + x265 + x266
      + x267 + x268 + x269 + x270 + x271 + x272 + x273 + x274 + x275 + x276
      + x277 + x278 + x279 + x280 + x281 + x282 + x283 + x284 + x285 + x286
      + x287 + x288 + x289 + x290 + x291 + x292 + x293 + x294 + x295 + x296
      + x297 + x298 + x299 + x300 + x301 + x302 + x303 + x304 + x305 + x306
      + x307 + x308 + x309 + x310 + x311 + x312 + x313 + x314 + x315 + x316
      + x317 + x318 + x319 + x320 + x321 + x322 + x323 + x324 + x325 + x326
      + x327 + x328 + x329 + x330 + x331 + x332 + x333 + x334 + x335 + x336
      + x337 + x338 + x339 + x340 + x341 + x342 + x343 + x344 + x345 + x346
      + x347 + x348 + x349 + x350 + x351 + x352 + x353 + x354 + x355 + x356
      + x357 + x358 + x359 + x360 + x361 + x362 + x363 + x364 + x365 + x366
      + x367 + x368 + x369 + x370 + x371 + x372 + x373 + x374 + x375 + x376
      + x377 + x378 + x379 + x380 + x381 + x382 + x383 + x384 + x385 + x386
      + x387 + x388 + x389 + x390
Subject To
 c1:  x1 + x115  = 1
 c2:  x2 + x124  = 1
 c3:  x3 + x125  = 1
 c4:  x4 + x126  = 1
 c5:  x5 + x127  = 1
 c6:  x6 + x128  = 1
 c7:  x7 + x129  = 1
 c8:  x8 + x130  = 1
 c9:  x9 + x131 + x209  = 1
 c10: x10 + x132 + x180 + x181 + x184 + x211  = 1
 c11: x11 + x123 + x153  = 1
 c12: x12 + x138 + x141 + x144  = 1
 c13: x13 + x134 + x137 + x140 + x149 + x205 + x207 + x208  = 1
 c14: x14 + x120 + x133 + x161 + x172 + x173 + x183  = 1
 c15: x15 + x119 + x121 + x139 + x171 + x204 + x212  = 1
 c16: x16 + x116 + x118 + x182 + x228  = 1
 c17: x17 + x109 + x112 + x142 + x159 + x189 + x226  = 1
 c18: x18 + x113 + x114 + x191  = 1
 c19: x19 + x104 + x108 + x117 + x122 + x158 + x164 + x165 + x175 + x177 + x213
       = 1
 c20: x20 + x103 + x106 + x152 + x167 + x195 + x197 + x199 + x210 + x237 + x240
      + x246  = 1
 c21: x21 + x98 + x102 + x105 + x135 + x146 + x148 + x160 + x190 + x194 + x222
      + x231 + x234 + x236 + x244  = 1
 c22: x22 + x98 + x102 + x103 + x136 + x157 + x177 + x201 + x210 + x214 + x215
       = 1
 c23: x23 + x90 + x97 + x105 + x107 + x111 + x154 + x186 + x187 + x188 + x193
      + x200 + x225 + x240  = 1
 c24: x24 + x94 + x95 + x111 + x113 + x230 + x243  = 1
 c25: x25 + x89 + x95 + x97 + x114 + x145 + x196 + x203 + x215 + x216 + x220
      + x223 + x230 + x233 + x238 + x246  = 1
 c26: x26 + x86 + x89 + x91 + x96 + x100 + x150 + x151 + x162 + x165 + x169
      + x192 + x193 + x196 + x202 + x241  = 1
 c27: x27 + x78 + x86 + x90 + x106 + x147 + x156 + x168 + x188 + x201 + x221
      + x224 + x229  = 1
 c28: x28 + x77 + x87 + x91 + x117 + x147 + x163 + x170 + x174 + x179 + x185
      + x192 + x217 + x218 + x219 + x223 + x225 + x227 + x232 + x239  = 1
 c29: x29 + x77 + x82 + x88 + x93 + x94 + x99 + x101 + x143 + x148 + x156
      + x166 + x170 + x178 + x221 + x224 + x229  = 1
 c30: x30 + x79 + x82 + x84 + x87 + x110 + x150 + x155 + x163 + x166 + x168
      + x170 + x206 + x218 + x219 + x220 + x222 + x226 + x227  = 1
 c31: x31 + x74 + x79 + x85 + x107 + x109 + x227 + x235 + x236 + x237 + x238
      + x239 + x245  = 1
 c32: x32 + x71 + x73 + x74 + x81 + x101 + x110 + x151 + x168 + x169 + x174
      + x176 + x178 + x179 + x185 + x186 + x189 + x190 + x198 + x217 + x218
      + x229 + x233 + x234 + x235 + x239 + x244  = 1
 c33: x33 + x61 + x74 + x75 + x76 + x83 + x92 + x100 + x110 + x156 + x159
      + x160 + x174 + x176 + x194 + x206 + x216  = 1
 c34: x34 + x67 + x71 + x72 + x75 + x82 + x88 + x145 + x147 + x166 + x167
      + x169 + x214 + x216 + x219 + x224 + x231 + x232 + x233 + x235 + x242
      + x243 + x245 + x247 + x248 + x249 + x250 + x251 + x252 + x253 + x254
      + x255 + x256 + x257 + x258 + x259 + x260 + x261 + x262 + x263 + x264
      + x265 + x266 + x267 + x268 + x269 + x270 + x271 + x272 + x273 + x274
      + x275 + x276 + x277 + x278 + x279 + x280 + x281 + x282 + x283 + x284
      + x285 + x286 + x287 + x288 + x289 + x290 + x291 + x292 + x293 + x294
      + x295 + x296 + x297 + x298 + x299 + x300 + x301 + x302 + x303 + x304
      + x305 + x306 + x307 + x308 + x309 + x310 + x311 + x312 + x313 + x314
      + x315 + x316 + x317 + x318 + x319 + x320 + x321 + x322 + x323 + x324
      + x325 + x326 + x327 + x328 + x329 + x330 + x331 + x332 + x333 + x334
      + x335 + x336 + x337 + x338 + x339 + x340 + x341 + x342 + x343 + x344
      + x345 + x346 + x347 + x348 + x349 + x350 + x351 + x352 + x353 + x354
      + x355 + x356 + x357 + x358 + x359 + x360 + x361 + x362 + x363 + x364
      + x365 + x366 + x367 + x368 + x369 + x370 + x371 + x372 + x373 + x374
      + x375 + x376 + x377 + x378 + x379 + x380 + x381 + x382 + x383 + x384
      + x385 + x386 + x387 + x388 + x389 + x390  = 1
 c35: x35 + x65 + x66 + x67 + x68 + x70 + x83 + x85 + x87 + x96 + x116 + x238
      + x247 + x248 + x249 + x250 + x251 + x252 + x253 + x254 + x255 + x256
      + x257 + x258 + x259 + x260 + x261 + x262 + x263 + x264 + x265 + x266
      + x267 + x268 + x269 + x270 + x271 + x272 + x273 + x274 + x275 + x276
      + x277 + x278 + x279 + x280 + x281 + x282 + x283 + x284 + x285 + x286
      + x287 + x288 + x289 + x290 + x291 + x292 + x293 + x294 + x295 + x296
      + x297 + x298 + x299 + x300 + x301 + x302 + x303 + x304 + x305 + x306
      + x307 + x308 + x309 + x310 + x311 + x312 + x313 + x314 + x315 + x316
      + x317 + x318 + x319 + x320 + x321 + x322 + x323 + x324 + x325 + x326
      + x327 + x328 + x329 + x330 + x331 + x332 + x333 + x334 + x335 + x336
      + x337 + x338 + x339 + x340 + x341 + x342 + x343 + x344 + x345 + x346
      + x347 + x348 + x349 + x350 + x351 + x352 + x353 + x354 + x355 + x356
      + x357 + x358 + x359 + x360 + x361 + x362 + x363 + x364 + x365 + x366
      + x367 + x368 + x369 + x370 + x371 + x372 + x373 + x374 + x375 + x376
      + x377 + x378 + x379 + x380 + x381 + x382 + x383 + x384 + x385 + x386
      + x387 + x388 + x389 + x390  = 1
 c36: x36 + x62 + x63 + x65 + x66 + x73 + x76 + x80 + x92 + x100 + x118 + x142
      + x143 + x145 + x146 + x151 + x155 + x164 + x171 + x173 + x198 + x212
      + x223  = 1
 c37: x37 + x62 + x63 + x64 + x68 + x69 + x72 + x80 + x81 + x96 + x101 + x135
      + x136 + x139 + x186 + x192  = 1
 c38: x38 + x59 + x60 + x63 + x64 + x65 + x70 + x78 + x81 + x91 + x122 + x149
      + x213  = 1
 c39: x39 + x54 + x58 + x59 + x60 + x61 + x69 + x72 + x73 + x78 + x92 + x93
      + x95 + x99 + x122 + x140 + x191 + x197 + x198 + x199 + x200 + x202
      + x203 + x241  = 1
 c40: x40 + x54 + x56 + x57 + x60 + x66 + x68 + x80 + x84 + x88 + x120 + x162
      + x175 + x176 + x182 + x183 + x187 + x188 + x195 + x196 + x204 + x208
      + x213 + x214 + x225 + x228 + x247 + x248 + x249 + x250 + x251 + x252
      + x253 + x254 + x255 + x256 + x257 + x258 + x259 + x260 + x261 + x262
      + x263 + x264 + x265 + x266 + x267 + x268 + x269 + x270 + x271 + x272
      + x273 + x274 + x275 + x276 + x277 + x278 + x279 + x280 + x281 + x282
      + x283 + x284 + x285 + x286 + x287 + x288 + x289 + x290 + x291 + x292
      + x293 + x294 + x295 + x296 + x297 + x298 + x299 + x300 + x301 + x302
      + x303 + x304 + x305 + x306 + x307 + x308 + x309 + x310 + x311 + x312
      + x313 + x314 + x315 + x316 + x317 + x318 + x319 + x320 + x321 + x322
      + x323 + x324 + x325 + x326 + x327 + x328 + x329 + x330 + x331 + x332
      + x333 + x334 + x335 + x336 + x337 + x338 + x339 + x340 + x341 + x342
      + x343 + x344 + x345 + x346 + x347 + x348 + x349 + x350 + x351 + x352
      + x353 + x354 + x355 + x356 + x357 + x358 + x359 + x360 + x361 + x362
      + x363 + x364 + x365 + x366 + x367 + x368 + x369 + x370 + x371 + x372
      + x373 + x374 + x375 + x376 + x377 + x378 + x379 + x380 + x381 + x382
      + x383 + x384 + x385 + x386 + x387 + x388 + x389 + x390  = 1
 c41: x41 + x54 + x55 + x57 + x59 + x62 + x64 + x67 + x70 + x80 + x83 + x93
      + x107 + x108 + x119 + x135 + x136 + x143 + x150 + x152 + x154 + x155
      + x157 + x158 + x161 + x162 + x172 + x175 + x187 + x197 + x198 + x199
      + x200 + x202 + x203 + x241  = 1
 c42: x42 + x52 + x53 + x55 + x56 + x57 + x58 + x61 + x62 + x69 + x71 + x76
      + x78 + x84 + x99 + x104 + x133 + x134 + x154 + x162 + x164 + x185 + x191
      + x195 + x201 + x202 + x203 + x205 + x206 + x230 + x242 + x245  = 1
 c43: x43 + x51 + x52 + x53 + x54 + x56 + x61 + x64 + x69 + x71 + x75 + x77
      + x92 + x94 + x97 + x152 + x155 + x157 + x158 + x178 + x179 + x193 + x194
      + x217 + x221 + x231 + x232 + x234 + x242 + x243 + x245 + x247 + x248
      + x249 + x250 + x251 + x252 + x253 + x254 + x255 + x256 + x257 + x258
      + x259 + x260 + x261 + x262 + x263 + x264 + x265 + x266 + x267 + x268
      + x269 + x270 + x271 + x272 + x273 + x274 + x275 + x276 + x277 + x278
      + x279 + x280 + x281 + x282 + x283 + x284 + x285 + x286 + x287 + x288
      + x289 + x290 + x291 + x292 + x293 + x294 + x295 + x296 + x297 + x298
      + x299 + x300 + x301 + x302 + x303 + x304 + x305 + x306 + x307 + x308
      + x309 + x310 + x311 + x312 + x313 + x314 + x315 + x316 + x317 + x318
      + x319 + x320 + x321 + x322 + x323 + x324 + x325 + x326 + x327 + x328
      + x329 + x330 + x331 + x332 + x333 + x334 + x335 + x336 + x337 + x338
      + x339 + x340 + x341 + x342 + x343 + x344 + x345 + x346 + x347 + x348
      + x349 + x350 + x351 + x352 + x353 + x354 + x355 + x356 + x357 + x358
      + x359 + x360 + x361 + x362 + x363 + x364 + x365 + x366 + x367 + x368
      + x369 + x370 + x371 + x372 + x373 + x374 + x375 + x376 + x377 + x378
      + x379 + x380 + x381 + x382 + x383 + x384 + x385 + x386 + x387 + x388
      + x389 + x390  = 1
 c44: x44 + x51 + x52 + x53 + x54 + x55 + x58 + x63 + x68 + x70 + x76 + x79
      + x85 + x86 + x93 + x99 + x104 + x111 + x146 + x154 + x160 + x163 + x178
      + x190 + x206 + x207 + x232  = 1
 c45: x45 + x51 + x52 + x53 + x55 + x56 + x58 + x59 + x60 + x66 + x69 + x73
      + x75 + x81 + x84 + x85 + x90 + x137 + x143 + x148 + x157 + x163 + x167
      + x176 + x179 + x185 + x187 + x200 + x215 + x217 + x222 + x236 + x241
      + x242 + x244  = 1
 c46: x46 + x51 + x52 + x53 + x55 + x56 + x57 + x58 + x60 + x65 + x67 + x72
      + x79 + x83 + x88 + x108 + x121 + x141  = 1
 c47: x47 + x51 + x52 + x53 + x55 + x56 + x57 + x59 + x61 + x63 + x67 + x77
      + x84 + x89 + x90 + x99 + x101 + x104 + x117 + x119 + x144 + x146 + x153
      + x161 + x165 + x180 + x195 + x207 + x209 + x228  = 1
 c48: x48 + x51 + x52 + x53 + x56 + x57 + x58 + x59 + x62 + x65 + x68 + x70
      + x72 + x73 + x75 + x84 + x86 + x89 + x94 + x105 + x108 + x110 + x121
      + x144 + x145 + x152 + x153 + x158 + x166 + x172 + x181 + x204 + x205
      + x209 + x211  = 1
 c49: x49 + x51 + x52 + x57 + x58 + x59 + x60 + x61 + x64 + x66 + x70 + x76
      + x77 + x81 + x89 + x92 + x93 + x96 + x98 + x138 + x142 + x143 + x150
      + x151 + x153 + x174 + x182 + x183 + x184 + x197 + x237  = 1
 c50: x50 + x51 + x54 + x55 + x56 + x58 + x59 + x61 + x64 + x65 + x66 + x72
      + x74 + x82 + x86 + x103 + x108 + x134 + x138 + x158 + x171 + x175 + x179
      + x180 + x181 + x182 + x183 + x184 + x188 + x195 + x196 + x204 + x208
      + x213 + x214 + x225 + x228 + x247 + x248 + x249 + x250 + x251 + x252
      + x253 + x254 + x255 + x256 + x257 + x258 + x259 + x260 + x261 + x262
      + x263 + x264 + x265 + x266 + x267 + x268 + x269 + x270 + x271 + x272
      + x273 + x274 + x275 + x276 + x277 + x278 + x279 + x280 + x281 + x282
      + x283 + x284 + x285 + x286 + x287 + x288 + x289 + x290 + x291 + x292
      + x293 + x294 + x295 + x296 + x297 + x298 + x299 + x300 + x301 + x302
      + x303 + x304 + x305 + x306 + x307 + x308 + x309 + x310 + x311 + x312
      + x313 + x314 + x315 + x316 + x317 + x318 + x319 + x320 + x321 + x322
      + x323 + x324 + x325 + x326 + x327 + x328 + x329 + x330 + x331 + x332
      + x333 + x334 + x335 + x336 + x337 + x338 + x339 + x340 + x341 + x342
      + x343 + x344 + x345 + x346 + x347 + x348 + x349 + x350 + x351 + x352
      + x353 + x354 + x355 + x356 + x357 + x358 + x359 + x360 + x361 + x362
      + x363 + x364 + x365 + x366 + x367 + x368 + x369 + x370 + x371 + x372
      + x373 + x374 + x375 + x376 + x377 + x378 + x379 + x380 + x381 + x382
      + x383 + x384 + x385 + x386 + x387 + x388 + x389 + x390  = 1
Bounds
      x51 = 0
      x52 = 0
      x53 = 0
      x54 = 0
      x55 = 0
      x56 = 0
      x57 = 0
      x58 = 0
      x59 = 0
      x60 = 0
      x61 = 0
      x62 = 0
      x63 = 0
      x64 = 0
      x65 = 0
      x66 = 0
      x67 = 0
      x68 = 0
      x69 = 0
      x70 = 0
      x71 = 0
      x72 = 0
      x73 = 0
      x74 = 0
      x75 = 0
      x76 = 0
      x77 = 0
      x78 = 0
      x79 = 0
      x80 = 0
      x81 = 0
      x82 = 0
      x83 = 0
      x84 = 0
      x86 = 0
      x87 = 0
      x88 = 0
      x89 = 0
      x90 = 0
      x91 = 0
      x92 = 0
      x93 = 0
      x94 = 0
      x95 = 0
      x96 = 0
      x97 = 0
      x98 = 0
      x99 = 0
      x100 = 0
      x101 = 0
      x102 = 0
      x103 = 0
      x105 = 0
      x106 = 0
      x107 = 0
      x108 = 0
      x109 = 0
      x110 = 0
      x112 = 0
      x118 = 0
      x119 = 0
      x120 = 0
      x122 = 0
      x133 = 0
      x134 = 0
      x135 = 0
      x136 = 0
      x137 = 0
      x138 = 0
      x140 = 0
      x142 = 0
      x143 = 0
      x145 = 0
      x146 = 0
      x147 = 0
      x148 = 0
      x150 = 0
      x151 = 0
      x152 = 0
      x154 = 0
      x155 = 0
      x157 = 0
      x158 = 0
      x159 = 0
      x160 = 0
      x161 = 0
      x162 = 0
      x163 = 0
      x164 = 0
      x165 = 0
      x166 = 0
      x167 = 0
      x168 = 0
      x169 = 0
      x170 = 0
      x171 = 0
      x172 = 0
      x174 = 0
      x175 = 0
      x176 = 0
      x178 = 0
      x179 = 0
      x180 = 0
      x181 = 0
      x183 = 0
      x184 = 0
      x185 = 0
      x186 = 0
      x187 = 0
      x188 = 0
      x189 = 0
      x191 = 0
      x192 = 0
      x193 = 0
      x194 = 0
      x196 = 0
      x197 = 0
      x198 = 0
      x199 = 0
      x200 = 0
      x201 = 0
      x203 = 0
      x205 = 0
      x206 = 0
      x207 = 0
      x208 = 0
      x212 = 0
      x213 = 0
      x214 = 0
      x216 = 0
      x217 = 0
      x218 = 0
      x219 = 0
      x220 = 0
      x221 = 0
      x222 = 0
      x223 = 0
      x224 = 0
      x227 = 0
      x229 = 0
      x231 = 0
      x233 = 0
      x234 = 0
      x235 = 0
      x236 = 0
      x239 = 0
End
